webassembly/ejemplos_dzn/6/folder6_json_18.dzn
TERM = { '.', 's(2)', 's(4)', 'in_1', 'in_2', 's(1)', 's(0)', 's(3)', 'in_0'};
null = '.';
s = 6;
n = 8;
ndeps = 3;
max_registers_sz = 3;
NR = 0;
registers = [| |];
dependencies = [|'i32.load8_s_2', 'i32.store16_4', |'i32.store16_4', 'i32.load8_u_5', |'i32.load16_u_3', 'i32.store16_4'|];
GET_ENUM = { GET1, GET2, GET3};
SET_ENUM = { SET1, SET2, SET3};
TEE_ENUM = { TEE1, TEE2, TEE3};
N = 6;
OP = { 'i32.const_0', 'i32.load8_s_2', 'i32.load16_u_3', 'i32.add_0', 'i32.store16_4', 'i32.load8_u_5' };
in_ops = [0, 1, 1, 2, 2, 1 ];
out_ops = [1, 1, 1, 1, 0, 1 ];
in1 = ['.', 's(4)', 's(1)', 'in_0', 's(2)', 'in_2' ];
in2 = ['.', '.', '.', 'in_1', 's(0)', '.' ];
in3 = ['.', '.', '.', '.', '.', '.' ];
out1 = ['s(4)', 's(1)', 's(2)', 's(0)', '.', 's(3)' ];
out2 = ['.', '.', '.', '.', '.', '.' ];
out3 = ['.', '.', '.', '.', '.', '.' ];
comm = [false, false, false, true, false, false ];
gas = [1, 1, 1, 1, 1, 1 ];
sz = [1, 1, 1, 1, 1, 1 ];
stor = [false, false, false, false, true, false ];
lb = [ 1, 1, 1, 1, 1, 1 ];
ub = [ 6, 6, 6, 6, 6, 6 ];
startstack = [ 'in_0', 'in_1', 'in_2', null, null, null, null, null ];
endstack = [ 's(3)', null, null, null, null, null, null, null ];
